x                                  
1.00000
6.5573774029   0.0139895636   0.0023525914
0.0144248818   6.8818704972   0.0250003777
0.0030288114   0.0296526641   8.0401168667
Cd   Cu   Ge   Se   S   
2   4   2   5   3   
Direct
0.0102025751   0.1509644464   0.9929931892         
0.5132993764   0.8410219744   0.5054168256         
0.0123988455   0.6657561059   0.2557129981         
0.4912191972   0.3340449585   0.7337516309         
0.5195432891   0.3040004811   0.2602694075         
0.9830877729   0.6357341076   0.7518397687         
0.0026166963   0.1687206192   0.5056822711         
0.5114058536   0.8095442984   0.9930936172         
0.1470145479   0.3355624442   0.2680268821         
0.1410204562   0.7836477886   0.9960056677         
0.1039016469   0.8283451395   0.5116262451         
0.6337077780   0.6408456148   0.7641668358         
0.6488388231   0.1926740879   0.5048023565         
0.6007813495   0.1536378673   0.9905386559         
0.6444992516   0.6400366627   0.2354565277         
0.1364625407   0.3354634034   0.7294571207         
