cd cu ge s                          
1.00000
6.3600833084   0.0003742324   0.0003690692
0.0003213017   6.6253385860   0.0001987134
0.0005530075   0.0001717414   7.7849773174
Cd   Cu   Ge   S   
2   4   2   8   
Direct
0.0048101835   0.1457266748   0.9999377422         
0.5048224214   0.8317852291   0.4999191553         
0.0040873652   0.6599770371   0.2507085369         
0.5040097238   0.3175254093   0.7507475383         
0.5039944301   0.3175114580   0.2490986111         
0.0040530284   0.6599677340   0.7491289183         
0.0073464139   0.1655456944   0.4999373478         
0.5074030550   0.8119368561   0.9999330745         
0.6004696870   0.1461945712   0.9999279975         
0.1406550159   0.3344394583   0.2682981862         
0.6406970215   0.6430422184   0.2315717329         
0.1479498682   0.7842158644   0.9999180544         
0.1004642985   0.8313042691   0.4999258190         
0.6406807056   0.6430558482   0.7682861360         
0.1406584290   0.3344411600   0.7315723429         
0.6478983529   0.1933305175   0.4999288067         
