x                                  
1.00000
6.4679382039   0.0028055989   0.0041477181
0.0028281038   6.7787678690   0.0224145296
0.0052662292   0.0264988867   7.9386640944
Cd   Cu   Ge   Se   S   
2   4   2   3   5   
Direct
0.0136143298   0.1371021144   0.9936852112         
0.4977340195   0.8345861913   0.5054129529         
0.0238685701   0.6842391621   0.2544750840         
0.4905448260   0.3334109352   0.7339106131         
0.5179263820   0.3030716249   0.2609976918         
-0.0033924104   0.6547031326   0.7503424646         
0.0029062961   0.1618579036   0.5064255700         
0.5027437690   0.8065318345   0.9933873260         
0.1438723613   0.3361885326   0.2674549817         
0.1468996509   0.7792255483   0.9959013156         
0.6469050520   0.1857702313   0.5054933941         
0.6004806151   0.1510565589   0.9906472698         
0.6471975182   0.6412432368   0.2357659286         
0.0983743861   0.8332400162   0.5094963262         
0.6363954634   0.6424551384   0.7640505732         
0.1339291712   0.3353178389   0.7313932971         
