cd cu ge se                         
1.00000
5.5490972511   0.0004678587   0.0001687130
0.0005157073   5.5490661529   0.0004123375
0.0003196478   0.0007416894   10.6443530799
Cd   Cu   Ge   S   
2   4   2   8   
Direct
0.0001604398   0.0000834401   0.0002026224         
0.5001350102   0.5000614408   0.5002358357         
0.0001375644   0.5000788906   0.2501944993         
0.5002132362   0.0002301461   0.7502013279         
0.5001611579   0.0000680802   0.2502079382         
0.0002257808   0.5002335831   0.7502035215         
0.0001550370   0.0000992179   0.5002044815         
0.5001608282   0.5001039950   0.0002157647         
0.7283435433   0.2718778094   0.1348266330         
0.2283497374   0.2282883043   0.3655897996         
0.7719495955   0.7718750535   0.3656036364         
0.2719475932   0.7282858526   0.1348313129         
0.2284114094   0.7719807723   0.6348289221         
0.7283229957   0.7283187008   0.8655857853         
0.2719465212   0.2719412039   0.8655996334         
0.7720395499   0.2283535094   0.6348382241         
