x                                  
1.00000
5.8078779288   0.0026469451   0.0087032313
0.0026556840   5.8078317425   0.0086731401
0.0166962729   0.0167388112   11.1765318128
Cd   Cu   Ge   Se   S   
2   4   2   7   1   
Direct
0.9999631933   0.0003146701   0.9979083653         
0.5036337474   0.4966617648   0.5074045214         
0.9964069227   0.5033868415   0.2521893948         
0.5212349281   0.0087366204   0.7427392804         
0.4969206652   0.0039011727   0.2521883087         
0.9915168938   0.4790180496   0.7427453816         
0.9964719470   0.0038164755   0.5047159824         
0.4979648942   0.5023171072   0.9985859857         
0.7307632242   0.2695384450   0.1359836575         
0.2292887868   0.2373048898   0.3682125496         
0.7629865642   0.7710023208   0.3682120818         
0.2658660205   0.7344349306   0.1372430854         
0.2291691630   0.7710924012   0.6412315926         
0.7359935127   0.7274799388   0.8607348793         
0.2728018052   0.2642856744   0.8607341505         
0.7716777319   0.2285886976   0.6325407210         
