x                                  
1.00000
6.6432002459   0.0143428140   0.0000232648
0.0149355334   6.9611524456   0.0000000735
0.0000089696   0.0000159006   8.1595103525
Cd   Cu   Ge   Se   S   
2   4   2   7   1   
Direct
0.0047854223   0.1464475168   0.9999257951         
0.5078411322   0.8459248467   0.4999276561         
0.0031132248   0.6597093606   0.2520686889         
0.5113203281   0.3093570466   0.7373839716         
0.5113163009   0.3093649565   0.2624689649         
0.0031078760   0.6597089077   0.7477867994         
-0.0014319217   0.1649311468   0.4999277147         
0.5072291687   0.8136861212   0.9999282628         
0.5999650773   0.1537919442   0.9999283672         
0.1418065062   0.3348247772   0.2669637734         
0.6387255652   0.6412762291   0.2377624157         
0.1403756552   0.7846726838   0.9999279874         
0.1030849923   0.8283974167   0.4999290199         
0.6387227064   0.6412744623   0.7620937470         
0.6482297409   0.1918068308   0.4999257116         
0.1418082251   0.3348257532   0.7328911245         
