x                                    
1.00000
5.6998642408   0.0000389571   0.0000269762
0.0000635274   5.6998586900   0.0000332221
0.0000283490   0.0000116343   10.9366682579
Cd   Cu   Ge   Se   S   
2   4   2   4   4   
Direct
0.0001551896   0.0001083206   0.9813940637         
0.5001497096   0.5001052433   0.5190368814         
0.0001677681   0.5001147458   0.2502000279         
0.5001817859   0.0001418008   0.7501963345         
0.5001728944   0.0001092309   0.2502006832         
0.0001842512   0.5001378714   0.7501961426         
0.0001640660   0.0001163351   0.5124427744         
0.5001646388   0.5001147485   0.9879833647         
0.2352425110   0.2351863909   0.3721594756         
0.2650860608   0.7351937346   0.1282697669         
0.2253387565   0.7749693425   0.6431392473         
0.7253240124   0.7252795841   0.8572874759         
0.7352404722   0.2650383349   0.1282691857         
0.7650790673   0.7650222571   0.3721626671         
0.2749935701   0.2749493309   0.8572923653         
0.7750152462   0.2252927290   0.6431394817         
