x                                  
1.00000
5.5849744752   0.0022318195   0.0094833208
0.0021883648   5.5849846542   0.0094495074
0.0181759950   0.0181727773   10.7185692408
Cd   Cu   Ge   Se   S   
2   4   2   1   7   
Direct
0.0045278976   0.9957800103   0.9931684548         
0.4995059669   0.5007710774   0.5023086432         
0.0216929283   0.5090819403   0.2577327526         
0.4962164396   0.0037905933   0.7484584891         
0.4911558173   0.9785389400   0.2577350081         
0.9965103614   0.5040827395   0.7484594057         
0.9981779376   0.0021103506   0.5017405065         
0.4969884382   0.5033119539   0.9955873473         
0.7319910078   0.2682669643   0.1388409302         
0.2324029026   0.2245833973   0.3685506667         
0.7757007682   0.7678841121   0.3685511459         
0.2697793745   0.7304794794   0.1308077169         
0.2259677261   0.7743325320   0.6341193905         
0.7230484758   0.7316864686   0.8611892075         
0.2686169994   0.2772541262   0.8611883961         
0.7703769586   0.2299253147   0.6349318767         
