x                                   
1.00000
6.5997335605   0.0133218800   0.0063640743
0.0137688783   6.9214420528   0.0085082820
0.0077022759   0.0101180909   8.0990277633
Cd   Cu   Ge   Se   S   
2   4   2   6   2   
Direct
0.0069628610   0.1517124527   0.9948788250         
0.5106162074   0.8474232985   0.5020361192         
0.0082908476   0.6654387586   0.2527787346         
0.4860065891   0.3121015109   0.7345165489         
0.5142641041   0.3092619797   0.2613348191         
0.0096894402   0.6368955099   0.7480485773         
0.0004936703   0.1686236329   0.5050777559         
0.5095387705   0.8142333956   0.9996623331         
0.5992707420   0.1562276109   0.9958963392         
0.1434531332   0.3370394666   0.2684074186         
0.6417938808   0.6429463269   0.2387479036         
0.1410467879   0.7868630255   0.9969866946         
0.1366867239   0.3292509380   0.7295637750         
0.6481584724   0.1955235780   0.5027041878         
0.1043589783   0.8298583280   0.5056296803         
0.6393687915   0.6366001876   0.7625702877         
