x                                  
1.00000
6.3880675750   0.0024623349   0.0000720151
0.0024284444   6.6942746791   0.0000774098
0.0001589824   0.0000734072   7.8217488117
Cd   Cu   Ge   Se   S   
2   4   2   1   7   
Direct
0.0195831536   0.1410796827   0.9999339356         
0.5030648076   0.8308611867   0.4999316684         
0.0040917292   0.6587196738   0.2517446003         
0.4983378393   0.3286868755   0.7357672654         
0.4983402422   0.3286927450   0.2640684562         
0.0040898398   0.6587216288   0.7481195630         
0.0069051031   0.1647125500   0.4999300136         
0.5069365578   0.8037406105   0.9999281061         
0.0997708635   0.8321845730   0.4999296841         
0.6021303359   0.1522357672   0.9999211558         
0.1387363433   0.3352078003   0.2702922990         
0.6415317735   0.6424076393   0.2336371029         
0.1481138928   0.7778747335   0.9999297872         
0.6415311344   0.6424023671   0.7662197887         
0.1387336441   0.3352062851   0.7295668446         
0.6481027399   0.1872658816   0.4999197294         
