cd cu ge se                         
1.00000
5.8466967864   0.0004997962   0.0001842837
0.0005010265   5.8461870938   0.0004255766
0.0003082459   0.0007592964   11.2536279397
Cd   Cu   Ge   Se   
2   4   2   8   
Direct
0.0001630520   0.0000675110   0.0001561190         
0.5001297938   0.5000343349   0.5002315557         
0.0001273603   0.5000616814   0.2502029792         
0.5002263558   0.0002706580   0.7502223552         
0.5001464997   0.0000531841   0.2502319928         
0.0002412101   0.5002839732   0.7502287296         
0.0001464126   0.0000860314   0.5002004752         
0.5001621362   0.5000932095   0.0002286345         
0.7321358063   0.2680543882   0.1364643284         
0.2321239105   0.2320655632   0.3639414194         
0.7681569063   0.7680691727   0.3639533021         
0.2681448172   0.7320739974   0.1364692924         
0.2322235917   0.7682235139   0.6364696617         
0.7320735941   0.7320984590   0.8639320738         
0.2681652882   0.2681838745   0.8639497232         
0.7682932652   0.2321604476   0.6364872956         
