x                                  
1.00000
5.6599022816   0.0054929475   0.0086213162
0.0055248481   5.6598871024   0.0085890024
0.0164952913   0.0165072574   10.8667411553
Cd   Cu   Ge   Se   S   
2   4   2   3   5   
Direct
0.0036652489   0.9966173042   0.9887985535         
0.4998176630   0.5004420157   0.5167423748         
0.0214702436   0.5097258532   0.2425976582         
0.4962787409   0.0031946625   0.7519367817         
0.4905631932   0.9788109685   0.2425960360         
0.9971020036   0.5040121583   0.7519383717         
0.9977705518   0.0025079977   0.5108010851         
0.4971217218   0.5031647313   0.9924255563         
0.2388774399   0.2307651797   0.3689587086         
0.2690786304   0.7312068878   0.1241000845         
0.7225302293   0.7304472376   0.8617477264         
0.7324532445   0.2678340053   0.1332648621         
0.7695089088   0.7613974735   0.3689634925         
0.2239383099   0.7763522024   0.6426466115         
0.2698392420   0.2777545421   0.8617491698         
0.7726446285   0.2276467804   0.6441028650         
