x                                   
1.00000
5.7672161832   0.0000316367   0.0000061337
0.0000174661   5.7773303556   0.0189590691
0.0000464578   0.0365894780   11.0902705029
Cd   Cu   Ge   Se   S   
2   4   2   6   2   
Direct
0.0038690373   0.0043260585   0.9906198883         
0.5038920405   0.4958981899   0.5097926926         
0.9935104431   0.4999008917   0.2505712088         
0.5119090499   0.0300388572   0.7493756635         
0.4935045234   0.0003323968   0.2498680612         
0.0119119475   0.4702230025   0.7510515836         
0.9945447344   0.0018891878   0.5063785095         
0.4945383474   0.4983399724   0.9940449204         
0.7281595214   0.2646203808   0.1318691959         
0.2281602430   0.2356115273   0.3685519819         
0.7604879581   0.7688652346   0.3676331973         
0.2324319148   0.7749080224   0.6442183855         
0.2764163860   0.2677922254   0.8643250756         
0.7764284051   0.2324420326   0.6360930160         
0.2604823937   0.7313692463   0.1327836369         
0.7324130547   0.7253227738   0.8561929211         
