x                                  
1.00000
5.7353010524   0.0023529345   0.0097161191
0.0023716775   5.7353234643   0.0096820895
0.0186507786   0.0186723965   11.0157271051
Cd   Cu   Ge   Se   S   
2   4   2   5   3   
Direct
0.9993863268   0.0008874339   0.9835049794         
0.5047250145   0.4955585646   0.5119826160         
0.9965391844   0.5039491120   0.2481022072         
0.5213273253   0.0080265655   0.7575515303         
0.4963445924   0.0037537248   0.2481019865         
0.9922522427   0.4789417868   0.7575515436         
0.9963432436   0.0039422242   0.5078141821         
0.4983017306   0.5019814306   0.9894962926         
0.7327257394   0.2675678131   0.1278954343         
0.2298877894   0.2385330963   0.3679613920         
0.2633605016   0.7369325560   0.1283618580         
0.7295525046   0.7213647171   0.8603643743         
0.7725204374   0.2277579693   0.6394466940         
0.7617530964   0.7703985718   0.3679623954         
0.2287235670   0.7715559897   0.6469056827         
0.2789167039   0.2707284440   0.8603667697         
