cd cu ge se                         
1.00000
6.7034899336   0.0000540124   0.0000013556
0.0000620803   6.9889371757   0.0000023894
0.0000071799   0.0000092825   8.2138412042
Cd   Cu   Ge   Se   
2   4   2   8   
Direct
0.0063682306   0.1438706240   0.9999265260         
0.5063454929   0.8337929332   0.4999282759         
0.0037125060   0.6599299433   0.2512582947         
0.5037203806   0.3175033850   0.7512998495         
0.5037078084   0.3175081290   0.2485599348         
0.0037067873   0.6599258183   0.7485916132         
0.0077461835   0.1623060367   0.4999278290         
0.5077376833   0.8151466518   0.9999282538         
0.6043009708   0.1530331550   0.9999310435         
0.1408290712   0.3354883687   0.2652264727         
0.6408026756   0.6420055907   0.2346548938         
0.1425386773   0.7837168800   0.9999249572         
0.1042820219   0.8244243146   0.4999268010         
0.6408012435   0.6420055435   0.7652001909         
0.1408345266   0.3354875043   0.7346272760         
0.6425657406   0.1938551218   0.4999277879         
