x                                   
1.00000
6.4279238688   0.0021382334   0.0044196192
0.0022261454   6.7364076311   0.0126113884
0.0052377999   0.0150233050   7.8792510361
Cd   Cu   Ge   Se   S   
2   4   2   2   6   
Direct
0.0168113727   0.1348578563   0.9951802827         
0.4998364692   0.8300302091   0.5020079237         
-0.0016527478   0.6807500772   0.2516262757         
0.4951281921   0.3284824980   0.7342605186         
0.5247585900   0.3273678476   0.2605646492         
-0.0005373845   0.6539579482   0.7491577533         
0.0049249532   0.1605706736   0.5055603986         
0.5047973983   0.8032216574   0.9995729629         
0.1443517884   0.3400545816   0.2674627257         
0.0978253012   0.8300562384   0.5053010969         
0.6022791269   0.1498135706   0.9954191684         
0.6414374629   0.6479254700   0.2339937581         
0.1473540353   0.7750096044   0.9981579033         
0.6382319896   0.6406087978   0.7668316951         
0.1368156608   0.3330063102   0.7318847400         
0.6476377918   0.1842866596   0.5018581478         
