x                                   
1.00000
5.6162903276   0.0000484836   0.0000025073
0.0000855773   5.6291562078   0.0185610582
0.0000066223   0.0357712233   10.7886476887
Cd   Cu   Ge   Se   S   
2   4   2   2   6   
Direct
0.0039385527   0.9958921211   0.9910690392         
0.5039314146   0.5043108677   0.5093648920         
0.0108621779   0.5309760736   0.2497607890         
0.4936100751   0.9994636816   0.7503688738         
0.5108844132   0.9692906640   0.2506376448         
0.9936098422   0.5007957835   0.7500163223         
0.9950649080   0.9990956817   0.5063224928         
0.4950673900   0.5011254895   0.9941008755         
0.2733320607   0.7346186047   0.1276358846         
0.7214155703   0.7288920052   0.8620904514         
0.7355358764   0.2713680222   0.1361629030         
0.2355196679   0.2288657750   0.3642668205         
0.7733128666   0.7656119986   0.3728003079         
0.2214253222   0.7713415587   0.6383392028         
0.2675671658   0.2755993440   0.8609101740         
0.7675826965   0.2246323290   0.6395232644         
