x                                    
1.00000
6.5242044910   0.0185121217   0.0070854831
0.0191372631   6.8031158369   0.0205350861
0.0088396311   0.0243847843   7.9981398469
Cd   Cu   Ge   Se   S   
2   4   2   4   4   
Direct
0.0122922602   0.1493893564   0.9928882758         
0.4991988309   0.8366512722   0.5048263895         
0.0171294427   0.6755860565   0.2704414794         
0.4907386909   0.3331420795   0.7324415721         
0.5190461305   0.3028871316   0.2611699388         
-0.0113655910   0.6479086190   0.7374389827         
0.0033373301   0.1605858578   0.5061017579         
0.5118773458   0.8090180824   0.9927560890         
0.6016498297   0.1549301581   0.9902404933         
0.1460415386   0.3348339922   0.2698471913         
0.1409921024   0.7768609034   0.9975848273         
0.1023194576   0.8340528322   0.5118579589         
0.6470025025   0.6406896013   0.2369289548         
0.6356159657   0.6417473417   0.7618031821         
0.1353968691   0.3352406438   0.7276621939         
0.6487272945   0.1864760717   0.5048507132         
